NAME: C:/Users/ben/git/CSI5183_F2014/CSI5183/Instances/Nodes/45n_10s_15d_instance.tsp
COMMENT: Ben Desjardins (bdesj038@uottawa.ca)
DIMENSION: 45
SPARCITY: 10
%HOLES: 15.0%
EDGE_WEIGHT_TYPE: EUC_2D


NODE	X_LOC	Y_LOC	DEMAND	BATTERY
DATASTART
0	0	0	0	0
1	-119	-45	1	43
2	-109	-356	1	96
3	-427	-86	1	49
4	-4	192	1	7
5	-479	-257	1	75
6	-363	106	1	23
7	-291	330	1	97
8	-390	-148	1	3
9	-326	-152	1	96
10	55	-148	1	81
11	-369	397	1	85
12	-461	-278	1	23
13	-3	348	1	86
14	-424	-425	1	41
15	270	359	1	25
16	326	388	1	43
17	11	-359	1	67
18	-369	-389	1	67
19	313	-316	1	54
20	-233	92	1	35
21	172	296	1	73
22	454	-415	1	3
23	334	121	1	55
24	42	-74	1	21
25	238	-38	1	92
26	-299	374	1	39
27	103	49	1	9
28	-175	304	1	16
29	215	-498	1	99
30	255	143	1	22
31	-485	252	1	34
32	23	253	1	32
33	110	-342	1	24
34	-432	-444	1	46
35	478	497	1	89
36	-415	98	1	31
37	-340	-377	1	98
EODATA
NODE	X_LOC	Y_LOC	DEMAND	DEGREE
HOLESTART
0	180	-320	-1	12
1	-440	420	-1	12
2	0	60	-1	12
3	-240	-220	-1	12
4	240	-40	-1	12
5	-480	-460	-1	11
6	-140	160	-1	12
EOHOLE
EOF
